15	53
0	1	67
0	5	18
0	6	54
0	7	51
0	8	27
0	14	69
1	2	58
1	5	62
1	8	18
1	11	10
1	12	24
1	13	59
1	14	63
2	5	83
2	6	56
2	9	46
2	12	32
2	13	22
2	14	89
3	4	83
3	7	90
3	8	5
3	11	73
3	12	70
4	5	91
4	7	90
4	8	99
4	9	52
4	10	43
4	11	35
4	14	79
5	7	55
5	8	92
5	11	33
5	14	52
6	10	30
6	11	89
6	13	17
7	9	24
7	10	67
7	11	0
7	13	10
7	14	47
8	9	93
8	13	23
8	14	69
9	10	31
9	11	6
9	13	2
9	14	92
10	11	90
10	12	29
11	12	36
